;;fig1d.phx
(set-logic QF_BV)
(set-info :source |
   Sumit Gulwani, Saurabh Srivastava, Ramarathnam Venkatesan: 
   Program analysis as constraint solving. PLDI 2008: 281-292
|)
(set-info :smt-lib-version 2.0)
(set-info :category "industrial")
(set-info :status unknown)
(declare-fun v_m () (_ BitVec 9))
(declare-fun v_m1 () (_ BitVec 9))
(declare-fun v_m10 () (_ BitVec 9))
(declare-fun v_m11 () (_ BitVec 9))
(declare-fun v_m2 () (_ BitVec 9))
(declare-fun v_m3 () (_ BitVec 9))
(declare-fun v_m4 () (_ BitVec 9))
(declare-fun v_m5 () (_ BitVec 9))
(declare-fun v_m6 () (_ BitVec 9))
(declare-fun v_m7 () (_ BitVec 9))
(declare-fun v_m8 () (_ BitVec 9))
(declare-fun v_m9 () (_ BitVec 9))
(declare-fun v_x () (_ BitVec 9))
(declare-fun v_x1 () (_ BitVec 9))
(declare-fun v_x10 () (_ BitVec 9))
(declare-fun v_x11 () (_ BitVec 9))
(declare-fun v_x2 () (_ BitVec 9))
(declare-fun v_x3 () (_ BitVec 9))
(declare-fun v_x4 () (_ BitVec 9))
(declare-fun v_x5 () (_ BitVec 9))
(declare-fun v_x6 () (_ BitVec 9))
(declare-fun v_x7 () (_ BitVec 9))
(declare-fun v_x8 () (_ BitVec 9))
(declare-fun v_x9 () (_ BitVec 9))
(declare-fun v_y () (_ BitVec 9))
(declare-fun v_y1 () (_ BitVec 9))
(declare-fun v_y10 () (_ BitVec 9))
(declare-fun v_y11 () (_ BitVec 9))
(declare-fun v_y2 () (_ BitVec 9))
(declare-fun v_y3 () (_ BitVec 9))
(declare-fun v_y4 () (_ BitVec 9))
(declare-fun v_y5 () (_ BitVec 9))
(declare-fun v_y6 () (_ BitVec 9))
(declare-fun v_y7 () (_ BitVec 9))
(declare-fun v_y8 () (_ BitVec 9))
(declare-fun v_y9 () (_ BitVec 9))
(declare-fun c13 () (_ BitVec 9))
(declare-fun c40 () (_ BitVec 9))
(declare-fun c40x1 () (_ BitVec 9))
(declare-fun c47 () (_ BitVec 9))
(declare-fun c52 () (_ BitVec 9))
(declare-fun c52x1 () (_ BitVec 9))
(declare-fun c53 () (_ BitVec 9))
(declare-fun c54 () (_ BitVec 9))
(declare-fun c55 () (_ BitVec 9))
(declare-fun c56 () (_ BitVec 9))
(declare-fun c56x1 () (_ BitVec 9))
(declare-fun c57 () (_ BitVec 9))
(declare-fun c58 () (_ BitVec 9))
(declare-fun c59 () (_ BitVec 9))
(declare-fun z0_0 () (_ BitVec 9))
(declare-fun z0_1 () (_ BitVec 9))
(declare-fun z0_2 () (_ BitVec 9))
(declare-fun z1_0 () (_ BitVec 9))
(declare-fun z1_1 () (_ BitVec 9))
(declare-fun z1_2 () (_ BitVec 9))
(declare-fun z1_3 () (_ BitVec 9))
(declare-fun z1_4 () (_ BitVec 9))
(declare-fun z1_5 () (_ BitVec 9))
(declare-fun z1_6 () (_ BitVec 9))
(declare-fun z10_0 () (_ BitVec 9))
(declare-fun z10_1 () (_ BitVec 9))
(declare-fun z10_2 () (_ BitVec 9))
(declare-fun z10_3 () (_ BitVec 9))
(declare-fun z10_4 () (_ BitVec 9))
(declare-fun z10_5 () (_ BitVec 9))
(declare-fun z10_6 () (_ BitVec 9))
(declare-fun z10_7 () (_ BitVec 9))
(declare-fun z10_8 () (_ BitVec 9))
(declare-fun z11_0 () (_ BitVec 9))
(declare-fun z11_1 () (_ BitVec 9))
(declare-fun z11_2 () (_ BitVec 9))
(declare-fun z11_3 () (_ BitVec 9))
(declare-fun z11_4 () (_ BitVec 9))
(declare-fun z11_5 () (_ BitVec 9))
(declare-fun z11_6 () (_ BitVec 9))
(declare-fun z11_7 () (_ BitVec 9))
(declare-fun z11_8 () (_ BitVec 9))
(declare-fun z12_0 () (_ BitVec 9))
(declare-fun z12_1 () (_ BitVec 9))
(declare-fun z12_2 () (_ BitVec 9))
(declare-fun z12_3 () (_ BitVec 9))
(declare-fun z12_4 () (_ BitVec 9))
(declare-fun z12_5 () (_ BitVec 9))
(declare-fun z12_6 () (_ BitVec 9))
(declare-fun z12_7 () (_ BitVec 9))
(declare-fun z12_8 () (_ BitVec 9))
(declare-fun z13_0 () (_ BitVec 9))
(declare-fun z13_1 () (_ BitVec 9))
(declare-fun z13_2 () (_ BitVec 9))
(declare-fun z13_3 () (_ BitVec 9))
(declare-fun z13_4 () (_ BitVec 9))
(declare-fun z13_5 () (_ BitVec 9))
(declare-fun z13_6 () (_ BitVec 9))
(declare-fun z13_7 () (_ BitVec 9))
(declare-fun z13_8 () (_ BitVec 9))
(declare-fun z14_0 () (_ BitVec 9))
(declare-fun z14_1 () (_ BitVec 9))
(declare-fun z14_2 () (_ BitVec 9))
(declare-fun z14_3 () (_ BitVec 9))
(declare-fun z14_4 () (_ BitVec 9))
(declare-fun z14_5 () (_ BitVec 9))
(declare-fun z14_6 () (_ BitVec 9))
(declare-fun z14_7 () (_ BitVec 9))
(declare-fun z14_8 () (_ BitVec 9))
(declare-fun z15_0 () (_ BitVec 9))
(declare-fun z15_1 () (_ BitVec 9))
(declare-fun z15_2 () (_ BitVec 9))
(declare-fun z15_3 () (_ BitVec 9))
(declare-fun z15_4 () (_ BitVec 9))
(declare-fun z15_5 () (_ BitVec 9))
(declare-fun z15_6 () (_ BitVec 9))
(declare-fun z15_7 () (_ BitVec 9))
(declare-fun z15_8 () (_ BitVec 9))
(declare-fun z16_0 () (_ BitVec 9))
(declare-fun z16_1 () (_ BitVec 9))
(declare-fun z16_2 () (_ BitVec 9))
(declare-fun z16_3 () (_ BitVec 9))
(declare-fun z16_4 () (_ BitVec 9))
(declare-fun z16_5 () (_ BitVec 9))
(declare-fun z16_6 () (_ BitVec 9))
(declare-fun z16_7 () (_ BitVec 9))
(declare-fun z16_8 () (_ BitVec 9))
(declare-fun z17_0 () (_ BitVec 9))
(declare-fun z17_1 () (_ BitVec 9))
(declare-fun z17_2 () (_ BitVec 9))
(declare-fun z17_3 () (_ BitVec 9))
(declare-fun z17_4 () (_ BitVec 9))
(declare-fun z17_5 () (_ BitVec 9))
(declare-fun z17_6 () (_ BitVec 9))
(declare-fun z17_7 () (_ BitVec 9))
(declare-fun z17_8 () (_ BitVec 9))
(declare-fun z18_0 () (_ BitVec 9))
(declare-fun z18_1 () (_ BitVec 9))
(declare-fun z18_2 () (_ BitVec 9))
(declare-fun z18_3 () (_ BitVec 9))
(declare-fun z18_4 () (_ BitVec 9))
(declare-fun z18_5 () (_ BitVec 9))
(declare-fun z18_6 () (_ BitVec 9))
(declare-fun z18_7 () (_ BitVec 9))
(declare-fun z18_8 () (_ BitVec 9))
(declare-fun z19_0 () (_ BitVec 9))
(declare-fun z19_1 () (_ BitVec 9))
(declare-fun z19_2 () (_ BitVec 9))
(declare-fun z19_3 () (_ BitVec 9))
(declare-fun z19_4 () (_ BitVec 9))
(declare-fun z19_5 () (_ BitVec 9))
(declare-fun z19_6 () (_ BitVec 9))
(declare-fun z19_7 () (_ BitVec 9))
(declare-fun z19_8 () (_ BitVec 9))
(declare-fun z2_0 () (_ BitVec 9))
(declare-fun z2_1 () (_ BitVec 9))
(declare-fun z2_2 () (_ BitVec 9))
(declare-fun z2_3 () (_ BitVec 9))
(declare-fun z2_4 () (_ BitVec 9))
(declare-fun z2_5 () (_ BitVec 9))
(declare-fun z2_6 () (_ BitVec 9))
(declare-fun z20_0 () (_ BitVec 9))
(declare-fun z20_1 () (_ BitVec 9))
(declare-fun z20_2 () (_ BitVec 9))
(declare-fun z20_3 () (_ BitVec 9))
(declare-fun z20_4 () (_ BitVec 9))
(declare-fun z20_5 () (_ BitVec 9))
(declare-fun z20_6 () (_ BitVec 9))
(declare-fun z20_7 () (_ BitVec 9))
(declare-fun z20_8 () (_ BitVec 9))
(declare-fun z21_0 () (_ BitVec 9))
(declare-fun z21_1 () (_ BitVec 9))
(declare-fun z21_2 () (_ BitVec 9))
(declare-fun z21_3 () (_ BitVec 9))
(declare-fun z21_4 () (_ BitVec 9))
(declare-fun z21_5 () (_ BitVec 9))
(declare-fun z21_6 () (_ BitVec 9))
(declare-fun z21_7 () (_ BitVec 9))
(declare-fun z21_8 () (_ BitVec 9))
(declare-fun z3_0 () (_ BitVec 9))
(declare-fun z3_1 () (_ BitVec 9))
(declare-fun z3_2 () (_ BitVec 9))
(declare-fun z3_3 () (_ BitVec 9))
(declare-fun z3_4 () (_ BitVec 9))
(declare-fun z3_5 () (_ BitVec 9))
(declare-fun z3_6 () (_ BitVec 9))
(declare-fun z4_0 () (_ BitVec 9))
(declare-fun z4_1 () (_ BitVec 9))
(declare-fun z4_2 () (_ BitVec 9))
(declare-fun z4_3 () (_ BitVec 9))
(declare-fun z4_4 () (_ BitVec 9))
(declare-fun z4_5 () (_ BitVec 9))
(declare-fun z5_0 () (_ BitVec 9))
(declare-fun z5_1 () (_ BitVec 9))
(declare-fun z5_2 () (_ BitVec 9))
(declare-fun z5_3 () (_ BitVec 9))
(declare-fun z5_4 () (_ BitVec 9))
(declare-fun z5_5 () (_ BitVec 9))
(declare-fun z5_6 () (_ BitVec 9))
(declare-fun z6_0 () (_ BitVec 9))
(declare-fun z6_1 () (_ BitVec 9))
(declare-fun z6_2 () (_ BitVec 9))
(declare-fun z6_3 () (_ BitVec 9))
(declare-fun z6_4 () (_ BitVec 9))
(declare-fun z6_5 () (_ BitVec 9))
(declare-fun z6_6 () (_ BitVec 9))
(declare-fun z7_0 () (_ BitVec 9))
(declare-fun z7_1 () (_ BitVec 9))
(declare-fun z7_2 () (_ BitVec 9))
(declare-fun z7_3 () (_ BitVec 9))
(declare-fun z7_4 () (_ BitVec 9))
(declare-fun z7_5 () (_ BitVec 9))
(declare-fun z7_6 () (_ BitVec 9))
(declare-fun z7_7 () (_ BitVec 9))
(declare-fun z7_8 () (_ BitVec 9))
(declare-fun z8_0 () (_ BitVec 9))
(declare-fun z8_1 () (_ BitVec 9))
(declare-fun z8_2 () (_ BitVec 9))
(declare-fun z8_3 () (_ BitVec 9))
(declare-fun z8_4 () (_ BitVec 9))
(declare-fun z8_5 () (_ BitVec 9))
(declare-fun z8_6 () (_ BitVec 9))
(declare-fun z8_7 () (_ BitVec 9))
(declare-fun z8_8 () (_ BitVec 9))
(declare-fun z9_0 () (_ BitVec 9))
(declare-fun z9_1 () (_ BitVec 9))
(declare-fun z9_2 () (_ BitVec 9))
(declare-fun z9_3 () (_ BitVec 9))
(declare-fun z9_4 () (_ BitVec 9))
(declare-fun z9_5 () (_ BitVec 9))
(declare-fun z9_6 () (_ BitVec 9))
(declare-fun z9_7 () (_ BitVec 9))
(declare-fun z9_8 () (_ BitVec 9))
(assert (let ((?v_0 (bvneg v_x1)) (?v_1 (bvneg v_y2)) (?v_2 (bvmul v_x2 c57)) (?v_3 (bvmul v_y2 c58)) (?v_4 (bvmul v_m2 c59)) (?v_6 (bvneg v_x3)) (?v_7 (bvneg v_y4)) (?v_8 (bvmul v_x4 c53)) (?v_9 (bvmul v_y4 c54)) (?v_10 (bvmul v_m4 c55)) (?v_13 (bvneg v_m5)) (?v_12 (bvneg v_x5)) (?v_16 (bvneg c40x1)) (?v_15 (bvneg v_m6)) (?v_14 (bvneg v_y6)) (?v_17 (bvneg v_y7)) (?v_19 (bvsle (_ bv0 9) (bvadd v_x9 (bvneg v_m9)))) (?v_20 (bvsle (_ bv0 9) v_y9)) (?v_18 (bvneg v_y9))) (let ((?v_21 (bvsle (_ bv0 9) (bvadd v_x9 ?v_18))) (?v_23 (bvsle (_ bv0 9) (bvadd v_x11 (bvneg v_m11)))) (?v_24 (bvsle (_ bv0 9) v_y11)) (?v_22 (bvneg v_y11))) (let ((?v_25 (bvsle (_ bv0 9) (bvadd v_x11 ?v_22))) (?v_26 (bvneg z1_0)) (?v_27 (bvneg (bvmul c13 z1_5))) (?v_29 (bvneg (bvmul c57 z2_5))) (?v_28 (bvneg (bvmul c58 z2_5))) (?v_31 (bvneg (bvmul c53 z3_5))) (?v_30 (bvneg (bvmul c54 z3_5))) (?v_32 (bvneg z4_4)) (?v_34 (bvneg (bvmul c57 z7_7))) (?v_33 (bvmul c58 z7_7)) (?v_36 (bvneg (bvmul c53 z8_7))) (?v_35 (bvmul c54 z8_7)) (?v_37 (bvneg z11_8)) (?v_38 (bvneg z12_8)) (?v_39 (bvneg z14_8)) (?v_40 (bvneg z15_8)) (?v_41 (bvneg z16_8)) (?v_42 (bvneg z17_8)) (?v_43 (bvneg z19_8)) (?v_44 (bvneg z20_8)) (?v_45 (bvneg z21_8)) (?v_5 (bvadd (bvneg c56x1) (bvadd (bvneg c57) (_ bv511 9)))) (?v_11 (bvadd (bvneg c52x1) (bvadd (bvneg c53) (_ bv511 9))))) (and (bvsle (_ bv505 9) v_m) (bvsle v_m (_ bv7 9)) (bvsle (_ bv505 9) v_m1) (bvsle v_m1 (_ bv7 9)) (bvsle (_ bv505 9) v_m10) (bvsle v_m10 (_ bv7 9)) (bvsle (_ bv505 9) v_m11) (bvsle v_m11 (_ bv7 9)) (bvsle (_ bv505 9) v_m2) (bvsle v_m2 (_ bv7 9)) (bvsle (_ bv505 9) v_m3) (bvsle v_m3 (_ bv7 9)) (bvsle (_ bv505 9) v_m4) (bvsle v_m4 (_ bv7 9)) (bvsle (_ bv505 9) v_m5) (bvsle v_m5 (_ bv7 9)) (bvsle (_ bv505 9) v_m6) (bvsle v_m6 (_ bv7 9)) (bvsle (_ bv505 9) v_m7) (bvsle v_m7 (_ bv7 9)) (bvsle (_ bv505 9) v_m8) (bvsle v_m8 (_ bv7 9)) (bvsle (_ bv505 9) v_m9) (bvsle v_m9 (_ bv7 9)) (bvsle (_ bv505 9) v_x) (bvsle v_x (_ bv7 9)) (bvsle (_ bv505 9) v_x1) (bvsle v_x1 (_ bv7 9)) (bvsle (_ bv505 9) v_x10) (bvsle v_x10 (_ bv7 9)) (bvsle (_ bv505 9) v_x11) (bvsle v_x11 (_ bv7 9)) (bvsle (_ bv505 9) v_x2) (bvsle v_x2 (_ bv7 9)) (bvsle (_ bv505 9) v_x3) (bvsle v_x3 (_ bv7 9)) (bvsle (_ bv505 9) v_x4) (bvsle v_x4 (_ bv7 9)) (bvsle (_ bv505 9) v_x5) (bvsle v_x5 (_ bv7 9)) (bvsle (_ bv505 9) v_x6) (bvsle v_x6 (_ bv7 9)) (bvsle (_ bv505 9) v_x7) (bvsle v_x7 (_ bv7 9)) (bvsle (_ bv505 9) v_x8) (bvsle v_x8 (_ bv7 9)) (bvsle (_ bv505 9) v_x9) (bvsle v_x9 (_ bv7 9)) (bvsle (_ bv505 9) v_y) (bvsle v_y (_ bv7 9)) (bvsle (_ bv505 9) v_y1) (bvsle v_y1 (_ bv7 9)) (bvsle (_ bv505 9) v_y10) (bvsle v_y10 (_ bv7 9)) (bvsle (_ bv505 9) v_y11) (bvsle v_y11 (_ bv7 9)) (bvsle (_ bv505 9) v_y2) (bvsle v_y2 (_ bv7 9)) (bvsle (_ bv505 9) v_y3) (bvsle v_y3 (_ bv7 9)) (bvsle (_ bv505 9) v_y4) (bvsle v_y4 (_ bv7 9)) (bvsle (_ bv505 9) v_y5) (bvsle v_y5 (_ bv7 9)) (bvsle (_ bv505 9) v_y6) (bvsle v_y6 (_ bv7 9)) (bvsle (_ bv505 9) v_y7) (bvsle v_y7 (_ bv7 9)) (bvsle (_ bv505 9) v_y8) (bvsle v_y8 (_ bv7 9)) (bvsle (_ bv505 9) v_y9) (bvsle v_y9 (_ bv7 9)) (bvsle (_ bv509 9) c13) (bvsle c13 (_ bv3 9)) (bvsle (_ bv509 9) c40) (bvsle c40 (_ bv3 9)) (bvsle (_ bv509 9) c47) (bvsle c47 (_ bv3 9)) (bvsle (_ bv509 9) c52) (bvsle c52 (_ bv3 9)) (bvsle (_ bv509 9) c53) (bvsle c53 (_ bv3 9)) (bvsle (_ bv509 9) c54) (bvsle c54 (_ bv3 9)) (bvsle (_ bv509 9) c55) (bvsle c55 (_ bv3 9)) (bvsle (_ bv509 9) c56) (bvsle c56 (_ bv3 9)) (bvsle (_ bv509 9) c57) (bvsle c57 (_ bv3 9)) (bvsle (_ bv509 9) c58) (bvsle c58 (_ bv3 9)) (bvsle (_ bv509 9) c59) (bvsle c59 (_ bv3 9)) (bvsle (_ bv0 9) z0_0) (bvsle z0_0 (_ bv1 9)) (bvsle (_ bv0 9) z0_1) (bvsle z0_1 (_ bv1 9)) (bvsle (_ bv1 9) z0_2) (bvsle z0_2 (_ bv127 9)) (bvsle (_ bv0 9) z1_0) (bvsle z1_0 (_ bv1 9)) (bvsle (_ bv0 9) z1_1) (bvsle z1_1 (_ bv1 9)) (bvsle (_ bv0 9) z1_2) (bvsle z1_2 (_ bv1 9)) (bvsle (_ bv0 9) z1_3) (bvsle z1_3 (_ bv1 9)) (bvsle (_ bv0 9) z1_4) (bvsle z1_4 (_ bv1 9)) (bvsle (_ bv0 9) z1_5) (bvsle z1_5 (_ bv1 9)) (bvsle (_ bv1 9) z1_6) (bvsle z1_6 (_ bv127 9)) (bvsle (_ bv0 9) z10_0) (bvsle z10_0 (_ bv1 9)) (bvsle (_ bv0 9) z10_1) (bvsle z10_1 (_ bv1 9)) (bvsle (_ bv0 9) z10_2) (bvsle z10_2 (_ bv1 9)) (bvsle (_ bv0 9) z10_3) (bvsle z10_3 (_ bv1 9)) (bvsle (_ bv0 9) z10_4) (bvsle z10_4 (_ bv1 9)) (bvsle (_ bv0 9) z10_5) (bvsle z10_5 (_ bv1 9)) (bvsle (_ bv0 9) z10_6) (bvsle z10_6 (_ bv1 9)) (bvsle (_ bv0 9) z10_7) (bvsle z10_7 (_ bv1 9)) (bvsle (_ bv1 9) z10_8) (bvsle z10_8 (_ bv127 9)) (bvsle (_ bv1 9) z11_0) (bvsle z11_0 (_ bv127 9)) (bvsle (_ bv0 9) z11_1) (bvsle z11_1 (_ bv1 9)) (bvsle (_ bv0 9) z11_2) (bvsle z11_2 (_ bv1 9)) (bvsle (_ bv0 9) z11_3) (bvsle z11_3 (_ bv1 9)) (bvsle (_ bv0 9) z11_4) (bvsle z11_4 (_ bv1 9)) (bvsle (_ bv0 9) z11_5) (bvsle z11_5 (_ bv1 9)) (bvsle (_ bv0 9) z11_6) (bvsle z11_6 (_ bv1 9)) (bvsle (_ bv0 9) z11_7) (bvsle z11_7 (_ bv1 9)) (bvsle (_ bv0 9) z11_8) (bvsle z11_8 (_ bv1 9)) (bvsle (_ bv1 9) z12_0) (bvsle z12_0 (_ bv127 9)) (bvsle (_ bv0 9) z12_1) (bvsle z12_1 (_ bv1 9)) (bvsle (_ bv0 9) z12_2) (bvsle z12_2 (_ bv1 9)) (bvsle (_ bv0 9) z12_3) (bvsle z12_3 (_ bv1 9)) (bvsle (_ bv0 9) z12_4) (bvsle z12_4 (_ bv1 9)) (bvsle (_ bv0 9) z12_5) (bvsle z12_5 (_ bv1 9)) (bvsle (_ bv0 9) z12_6) (bvsle z12_6 (_ bv1 9)) (bvsle (_ bv0 9) z12_7) (bvsle z12_7 (_ bv1 9)) (bvsle (_ bv0 9) z12_8) (bvsle z12_8 (_ bv1 9)) (bvsle (_ bv1 9) z13_0) (bvsle z13_0 (_ bv127 9)) (bvsle (_ bv0 9) z13_1) (bvsle z13_1 (_ bv1 9)) (bvsle (_ bv0 9) z13_2) (bvsle z13_2 (_ bv1 9)) (bvsle (_ bv0 9) z13_3) (bvsle z13_3 (_ bv1 9)) (bvsle (_ bv0 9) z13_4) (bvsle z13_4 (_ bv1 9)) (bvsle (_ bv0 9) z13_5) (bvsle z13_5 (_ bv1 9)) (bvsle (_ bv0 9) z13_6) (bvsle z13_6 (_ bv1 9)) (bvsle (_ bv0 9) z13_7) (bvsle z13_7 (_ bv1 9)) (bvsle (_ bv0 9) z13_8) (bvsle z13_8 (_ bv1 9)) (bvsle (_ bv1 9) z14_0) (bvsle z14_0 (_ bv127 9)) (bvsle (_ bv0 9) z14_1) (bvsle z14_1 (_ bv1 9)) (bvsle (_ bv0 9) z14_2) (bvsle z14_2 (_ bv1 9)) (bvsle (_ bv0 9) z14_3) (bvsle z14_3 (_ bv1 9)) (bvsle (_ bv0 9) z14_4) (bvsle z14_4 (_ bv1 9)) (bvsle (_ bv0 9) z14_5) (bvsle z14_5 (_ bv1 9)) (bvsle (_ bv0 9) z14_6) (bvsle z14_6 (_ bv1 9)) (bvsle (_ bv0 9) z14_7) (bvsle z14_7 (_ bv1 9)) (bvsle (_ bv0 9) z14_8) (bvsle z14_8 (_ bv1 9)) (bvsle (_ bv1 9) z15_0) (bvsle z15_0 (_ bv127 9)) (bvsle (_ bv0 9) z15_1) (bvsle z15_1 (_ bv1 9)) (bvsle (_ bv0 9) z15_2) (bvsle z15_2 (_ bv1 9)) (bvsle (_ bv0 9) z15_3) (bvsle z15_3 (_ bv1 9)) (bvsle (_ bv0 9) z15_4) (bvsle z15_4 (_ bv1 9)) (bvsle (_ bv0 9) z15_5) (bvsle z15_5 (_ bv1 9)) (bvsle (_ bv0 9) z15_6) (bvsle z15_6 (_ bv1 9)) (bvsle (_ bv0 9) z15_7) (bvsle z15_7 (_ bv1 9)) (bvsle (_ bv0 9) z15_8) (bvsle z15_8 (_ bv1 9)) (bvsle (_ bv1 9) z16_0) (bvsle z16_0 (_ bv127 9)) (bvsle (_ bv0 9) z16_1) (bvsle z16_1 (_ bv1 9)) (bvsle (_ bv0 9) z16_2) (bvsle z16_2 (_ bv1 9)) (bvsle (_ bv0 9) z16_3) (bvsle z16_3 (_ bv1 9)) (bvsle (_ bv0 9) z16_4) (bvsle z16_4 (_ bv1 9)) (bvsle (_ bv0 9) z16_5) (bvsle z16_5 (_ bv1 9)) (bvsle (_ bv0 9) z16_6) (bvsle z16_6 (_ bv1 9)) (bvsle (_ bv0 9) z16_7) (bvsle z16_7 (_ bv1 9)) (bvsle (_ bv0 9) z16_8) (bvsle z16_8 (_ bv1 9)) (bvsle (_ bv1 9) z17_0) (bvsle z17_0 (_ bv127 9)) (bvsle (_ bv0 9) z17_1) (bvsle z17_1 (_ bv1 9)) (bvsle (_ bv0 9) z17_2) (bvsle z17_2 (_ bv1 9)) (bvsle (_ bv0 9) z17_3) (bvsle z17_3 (_ bv1 9)) (bvsle (_ bv0 9) z17_4) (bvsle z17_4 (_ bv1 9)) (bvsle (_ bv0 9) z17_5) (bvsle z17_5 (_ bv1 9)) (bvsle (_ bv0 9) z17_6) (bvsle z17_6 (_ bv1 9)) (bvsle (_ bv0 9) z17_7) (bvsle z17_7 (_ bv1 9)) (bvsle (_ bv0 9) z17_8) (bvsle z17_8 (_ bv1 9)) (bvsle (_ bv1 9) z18_0) (bvsle z18_0 (_ bv127 9)) (bvsle (_ bv0 9) z18_1) (bvsle z18_1 (_ bv1 9)) (bvsle (_ bv0 9) z18_2) (bvsle z18_2 (_ bv1 9)) (bvsle (_ bv0 9) z18_3) (bvsle z18_3 (_ bv1 9)) (bvsle (_ bv0 9) z18_4) (bvsle z18_4 (_ bv1 9)) (bvsle (_ bv0 9) z18_5) (bvsle z18_5 (_ bv1 9)) (bvsle (_ bv0 9) z18_6) (bvsle z18_6 (_ bv1 9)) (bvsle (_ bv0 9) z18_7) (bvsle z18_7 (_ bv1 9)) (bvsle (_ bv0 9) z18_8) (bvsle z18_8 (_ bv1 9)) (bvsle (_ bv1 9) z19_0) (bvsle z19_0 (_ bv127 9)) (bvsle (_ bv0 9) z19_1) (bvsle z19_1 (_ bv1 9)) (bvsle (_ bv0 9) z19_2) (bvsle z19_2 (_ bv1 9)) (bvsle (_ bv0 9) z19_3) (bvsle z19_3 (_ bv1 9)) (bvsle (_ bv0 9) z19_4) (bvsle z19_4 (_ bv1 9)) (bvsle (_ bv0 9) z19_5) (bvsle z19_5 (_ bv1 9)) (bvsle (_ bv0 9) z19_6) (bvsle z19_6 (_ bv1 9)) (bvsle (_ bv0 9) z19_7) (bvsle z19_7 (_ bv1 9)) (bvsle (_ bv0 9) z19_8) (bvsle z19_8 (_ bv1 9)) (bvsle (_ bv511 9) z2_0) (bvsle z2_0 (_ bv1 9)) (bvsle (_ bv0 9) z2_1) (bvsle z2_1 (_ bv1 9)) (bvsle (_ bv0 9) z2_2) (bvsle z2_2 (_ bv1 9)) (bvsle (_ bv0 9) z2_3) (bvsle z2_3 (_ bv1 9)) (bvsle (_ bv0 9) z2_4) (bvsle z2_4 (_ bv1 9)) (bvsle (_ bv0 9) z2_5) (bvsle z2_5 (_ bv1 9)) (bvsle (_ bv1 9) z2_6) (bvsle z2_6 (_ bv127 9)) (bvsle (_ bv1 9) z20_0) (bvsle z20_0 (_ bv127 9)) (bvsle (_ bv0 9) z20_1) (bvsle z20_1 (_ bv1 9)) (bvsle (_ bv0 9) z20_2) (bvsle z20_2 (_ bv1 9)) (bvsle (_ bv0 9) z20_3) (bvsle z20_3 (_ bv1 9)) (bvsle (_ bv0 9) z20_4) (bvsle z20_4 (_ bv1 9)) (bvsle (_ bv0 9) z20_5) (bvsle z20_5 (_ bv1 9)) (bvsle (_ bv0 9) z20_6) (bvsle z20_6 (_ bv1 9)) (bvsle (_ bv0 9) z20_7) (bvsle z20_7 (_ bv1 9)) (bvsle (_ bv0 9) z20_8) (bvsle z20_8 (_ bv1 9)) (bvsle (_ bv1 9) z21_0) (bvsle z21_0 (_ bv127 9)) (bvsle (_ bv0 9) z21_1) (bvsle z21_1 (_ bv1 9)) (bvsle (_ bv0 9) z21_2) (bvsle z21_2 (_ bv1 9)) (bvsle (_ bv0 9) z21_3) (bvsle z21_3 (_ bv1 9)) (bvsle (_ bv0 9) z21_4) (bvsle z21_4 (_ bv1 9)) (bvsle (_ bv0 9) z21_5) (bvsle z21_5 (_ bv1 9)) (bvsle (_ bv0 9) z21_6) (bvsle z21_6 (_ bv1 9)) (bvsle (_ bv0 9) z21_7) (bvsle z21_7 (_ bv1 9)) (bvsle (_ bv0 9) z21_8) (bvsle z21_8 (_ bv1 9)) (bvsle (_ bv511 9) z3_0) (bvsle z3_0 (_ bv1 9)) (bvsle (_ bv0 9) z3_1) (bvsle z3_1 (_ bv1 9)) (bvsle (_ bv0 9) z3_2) (bvsle z3_2 (_ bv1 9)) (bvsle (_ bv0 9) z3_3) (bvsle z3_3 (_ bv1 9)) (bvsle (_ bv0 9) z3_4) (bvsle z3_4 (_ bv1 9)) (bvsle (_ bv0 9) z3_5) (bvsle z3_5 (_ bv1 9)) (bvsle (_ bv1 9) z3_6) (bvsle z3_6 (_ bv127 9)) (bvsle (_ bv511 9) z4_0) (bvsle z4_0 (_ bv1 9)) (bvsle (_ bv0 9) z4_1) (bvsle z4_1 (_ bv1 9)) (bvsle (_ bv0 9) z4_2) (bvsle z4_2 (_ bv1 9)) (bvsle (_ bv0 9) z4_3) (bvsle z4_3 (_ bv1 9)) (bvsle (_ bv0 9) z4_4) (bvsle z4_4 (_ bv1 9)) (bvsle (_ bv1 9) z4_5) (bvsle z4_5 (_ bv127 9)) (bvsle (_ bv511 9) z5_0) (bvsle z5_0 (_ bv1 9)) (bvsle (_ bv0 9) z5_1) (bvsle z5_1 (_ bv1 9)) (bvsle (_ bv0 9) z5_2) (bvsle z5_2 (_ bv1 9)) (bvsle (_ bv0 9) z5_3) (bvsle z5_3 (_ bv1 9)) (bvsle (_ bv0 9) z5_4) (bvsle z5_4 (_ bv1 9)) (bvsle (_ bv0 9) z5_5) (bvsle z5_5 (_ bv1 9)) (bvsle (_ bv1 9) z5_6) (bvsle z5_6 (_ bv127 9)) (bvsle (_ bv511 9) z6_0) (bvsle z6_0 (_ bv1 9)) (bvsle (_ bv0 9) z6_1) (bvsle z6_1 (_ bv1 9)) (bvsle (_ bv0 9) z6_2) (bvsle z6_2 (_ bv1 9)) (bvsle (_ bv0 9) z6_3) (bvsle z6_3 (_ bv1 9)) (bvsle (_ bv0 9) z6_4) (bvsle z6_4 (_ bv1 9)) (bvsle (_ bv0 9) z6_5) (bvsle z6_5 (_ bv1 9)) (bvsle (_ bv1 9) z6_6) (bvsle z6_6 (_ bv127 9)) (bvsle (_ bv0 9) z7_0) (bvsle z7_0 (_ bv1 9)) (bvsle (_ bv0 9) z7_1) (bvsle z7_1 (_ bv1 9)) (bvsle (_ bv0 9) z7_2) (bvsle z7_2 (_ bv1 9)) (bvsle (_ bv0 9) z7_3) (bvsle z7_3 (_ bv1 9)) (bvsle (_ bv0 9) z7_4) (bvsle z7_4 (_ bv1 9)) (bvsle (_ bv0 9) z7_5) (bvsle z7_5 (_ bv1 9)) (bvsle (_ bv0 9) z7_6) (bvsle z7_6 (_ bv1 9)) (bvsle (_ bv0 9) z7_7) (bvsle z7_7 (_ bv1 9)) (bvsle (_ bv1 9) z7_8) (bvsle z7_8 (_ bv127 9)) (bvsle (_ bv0 9) z8_0) (bvsle z8_0 (_ bv1 9)) (bvsle (_ bv0 9) z8_1) (bvsle z8_1 (_ bv1 9)) (bvsle (_ bv0 9) z8_2) (bvsle z8_2 (_ bv1 9)) (bvsle (_ bv0 9) z8_3) (bvsle z8_3 (_ bv1 9)) (bvsle (_ bv0 9) z8_4) (bvsle z8_4 (_ bv1 9)) (bvsle (_ bv0 9) z8_5) (bvsle z8_5 (_ bv1 9)) (bvsle (_ bv0 9) z8_6) (bvsle z8_6 (_ bv1 9)) (bvsle (_ bv0 9) z8_7) (bvsle z8_7 (_ bv1 9)) (bvsle (_ bv1 9) z8_8) (bvsle z8_8 (_ bv127 9)) (bvsle (_ bv0 9) z9_0) (bvsle z9_0 (_ bv1 9)) (bvsle (_ bv0 9) z9_1) (bvsle z9_1 (_ bv1 9)) (bvsle (_ bv0 9) z9_2) (bvsle z9_2 (_ bv1 9)) (bvsle (_ bv0 9) z9_3) (bvsle z9_3 (_ bv1 9)) (bvsle (_ bv0 9) z9_4) (bvsle z9_4 (_ bv1 9)) (bvsle (_ bv0 9) z9_5) (bvsle z9_5 (_ bv1 9)) (bvsle (_ bv0 9) z9_6) (bvsle z9_6 (_ bv1 9)) (bvsle (_ bv0 9) z9_7) (bvsle z9_7 (_ bv1 9)) (bvsle (_ bv1 9) z9_8) (bvsle z9_8 (_ bv127 9)) (and (= (bvadd c56 (_ bv511 9)) c56x1) (or (and (bvsle (_ bv0 9) (bvadd (bvneg v_m1) v_x1)) (bvsle (_ bv0 9) v_m1) (bvsle (_ bv0 9) (bvadd ?v_0 v_m1)) (bvsle (_ bv0 9) v_y1) (bvsle (_ bv0 9) (bvadd (bvmul c13 v_x1) (bvneg v_y1))) (bvsle (_ bv0 9) (bvadd ?v_0 v_y1)) (bvsle (_ bv0 9) (bvadd (bvneg (bvmul v_x1 c57)) (bvadd (bvneg (bvmul v_y1 c58)) (bvadd (bvneg (bvmul v_m1 c59)) (bvadd (bvneg c58) ?v_5)))))) (and (bvsle (_ bv0 9) (bvadd (bvneg v_m2) v_x2)) (bvsle (_ bv0 9) (bvadd v_y2 (_ bv511 9))) (bvsle (_ bv0 9) (bvadd c40 (bvadd ?v_1 v_m2))) (bvsle (_ bv0 9) (bvmul c47 v_m2)) (bvsle (_ bv0 9) (bvadd v_x2 ?v_1)) (bvsle (_ bv0 9) (bvadd c52 (bvadd (bvmul v_x2 c53) (bvadd (bvmul v_y2 c54) (bvmul v_m2 c55))))) (bvsle (_ bv0 9) (bvadd c56x1 (bvadd ?v_2 (bvadd ?v_3 ?v_4)))) (bvsle (_ bv0 9) (bvadd (bvneg ?v_2) (bvadd (bvneg ?v_3) (bvadd (bvneg ?v_4) (bvadd c58 ?v_5)))))))) (and (= (bvadd c52 (_ bv511 9)) c52x1) (or (and (bvsle (_ bv0 9) (bvadd (bvneg v_m3) v_x3)) (bvsle (_ bv0 9) v_m3) (bvsle (_ bv0 9) (bvadd ?v_6 v_m3)) (bvsle (_ bv0 9) v_y3) (bvsle (_ bv0 9) (bvadd (bvmul c13 v_x3) (bvneg v_y3))) (bvsle (_ bv0 9) (bvadd ?v_6 v_y3)) (bvsle (_ bv0 9) (bvadd (bvneg (bvmul v_x3 c53)) (bvadd (bvneg (bvmul v_y3 c54)) (bvadd (bvneg (bvmul v_m3 c55)) (bvadd (bvneg c54) ?v_11)))))) (and (bvsle (_ bv0 9) (bvadd (bvneg v_m4) v_x4)) (bvsle (_ bv0 9) (bvadd v_y4 (_ bv511 9))) (bvsle (_ bv0 9) (bvadd c40 (bvadd ?v_7 v_m4))) (bvsle (_ bv0 9) (bvmul c47 v_m4)) (bvsle (_ bv0 9) (bvadd v_x4 ?v_7)) (bvsle (_ bv0 9) (bvadd c52x1 (bvadd ?v_8 (bvadd ?v_9 ?v_10)))) (bvsle (_ bv0 9) (bvadd c56 (bvadd (bvmul v_x4 c57) (bvadd (bvmul v_y4 c58) (bvmul v_m4 c59))))) (bvsle (_ bv0 9) (bvadd (bvneg ?v_8) (bvadd (bvneg ?v_9) (bvadd (bvneg ?v_10) (bvadd c54 ?v_11)))))))) (and (= (bvadd c40 (_ bv511 9)) c40x1) (or (and (bvsle (_ bv0 9) (bvadd ?v_13 v_x5)) (bvsle (_ bv0 9) v_m5) (bvsle (_ bv0 9) (bvadd ?v_12 v_m5)) (bvsle (_ bv0 9) v_y5) (bvsle (_ bv0 9) (bvadd (bvmul c13 v_x5) (bvneg v_y5))) (bvsle (_ bv0 9) (bvadd ?v_12 v_y5)) (bvsle (_ bv0 9) (bvadd v_y5 (bvadd ?v_13 ?v_16)))) (and (bvsle (_ bv0 9) (bvadd ?v_15 v_x6)) (bvsle (_ bv0 9) (bvadd v_y6 (_ bv511 9))) (bvsle (_ bv0 9) (bvadd c40x1 (bvadd ?v_14 v_m6))) (bvsle (_ bv0 9) (bvmul c47 v_m6)) (bvsle (_ bv0 9) (bvadd v_x6 ?v_14)) (bvsle (_ bv0 9) (bvadd c52 (bvadd (bvmul v_x6 c53) (bvadd (bvmul v_y6 c54) (bvmul v_m6 c55))))) (bvsle (_ bv0 9) (bvadd c56 (bvadd (bvmul v_x6 c57) (bvadd (bvmul v_y6 c58) (bvmul v_m6 c59))))) (bvsle (_ bv0 9) (bvadd v_y6 (bvadd ?v_15 (bvadd ?v_16 (_ bv510 9)))))))) (not (and (bvsle (_ bv0 9) (bvadd v_x7 (bvneg v_m7))) (bvsle (_ bv0 9) v_y7) (bvsle (_ bv0 9) (bvadd c40 (bvadd ?v_17 v_m7))) (bvsle (_ bv0 9) (bvmul c47 v_m7)) (bvsle (_ bv0 9) (bvadd v_x7 ?v_17)) (bvsle (_ bv0 9) (bvadd c52 (bvadd (bvmul v_x7 c53) (bvadd (bvmul v_y7 c54) (bvmul v_m7 c55))))) (bvsle (_ bv0 9) (bvadd c56 (bvadd (bvmul v_x7 c57) (bvadd (bvmul v_y7 c58) (bvmul v_m7 c59))))))) (and (and ?v_19 ?v_20 (bvsle (_ bv0 9) (bvadd ?v_18 (bvadd v_m9 (_ bv1 9)))) ?v_21 (bvsle (_ bv0 9) (bvadd v_x9 (bvadd v_y9 (_ bv510 9))))) (not (and ?v_19 ?v_20 (bvsle (_ bv0 9) (bvadd c40 (bvadd ?v_18 v_m9))) (bvsle (_ bv0 9) (bvmul c47 v_m9)) ?v_21 (bvsle (_ bv0 9) (bvadd c52 (bvadd (bvmul v_x9 c53) (bvadd (bvmul v_y9 c54) (bvmul v_m9 c55))))) (bvsle (_ bv0 9) (bvadd c56 (bvadd (bvmul v_x9 c57) (bvadd (bvmul v_y9 c58) (bvmul v_m9 c59)))))))) (and (and ?v_23 ?v_24 (bvsle (_ bv0 9) (bvadd ?v_22 (bvadd v_m11 (_ bv1 9)))) (bvsle (_ bv0 9) v_m11) ?v_25 (bvsle (_ bv0 9) (bvadd v_x11 (bvadd v_y11 (_ bv510 9))))) (not (and ?v_23 ?v_24 (bvsle (_ bv0 9) (bvadd c40 (bvadd ?v_22 v_m11))) (bvsle (_ bv0 9) (bvmul c47 v_m11)) ?v_25 (bvsle (_ bv0 9) (bvadd c52 (bvadd (bvmul v_x11 c53) (bvadd (bvmul v_y11 c54) (bvmul v_m11 c55))))) (bvsle (_ bv0 9) (bvadd c56 (bvadd (bvmul v_x11 c57) (bvadd (bvmul v_y11 c58) (bvmul v_m11 c59)))))))) (= z0_0 (_ bv0 9)) (= (bvadd (bvneg z0_1) z0_2) (_ bv0 9)) (= (bvadd z1_0 z1_1) (_ bv0 9)) (= (bvadd ?v_26 (bvadd (bvmul c13 z1_3) (bvadd (bvneg z1_4) ?v_27))) (_ bv0 9)) (= (bvadd z1_2 (bvadd (bvneg z1_3) (bvadd z1_4 z1_5))) (_ bv0 9)) (= (bvadd ?v_26 (bvadd ?v_27 z1_6)) (_ bv0 9)) (= (bvadd (bvneg z2_0) (bvadd z2_1 (bvneg (bvmul c59 z2_5)))) (_ bv0 9)) (= (bvadd z2_0 (bvadd (bvmul c13 z2_3) (bvadd (bvneg z2_4) ?v_29))) (_ bv0 9)) (= (bvadd z2_2 (bvadd (bvneg z2_3) (bvadd z2_4 ?v_28))) (_ bv0 9)) (= (bvadd (bvneg z2_5) (bvadd ?v_28 (bvadd (bvneg (bvmul c56 z2_5)) (bvadd ?v_29 z2_6)))) (_ bv0 9)) (= (bvadd (bvneg z3_0) (bvadd z3_1 (bvneg (bvmul c55 z3_5)))) (_ bv0 9)) (= (bvadd z3_0 (bvadd (bvmul c13 z3_3) (bvadd (bvneg z3_4) ?v_31))) (_ bv0 9)) (= (bvadd z3_2 (bvadd (bvneg z3_3) (bvadd z3_4 ?v_30))) (_ bv0 9)) (= (bvadd (bvneg z3_5) (bvadd ?v_30 (bvadd (bvneg (bvmul c52 z3_5)) (bvadd ?v_31 z3_6)))) (_ bv0 9)) (= (bvadd (bvneg z4_0) z4_1) (_ bv0 9)) (= (bvadd z4_0 (bvadd (bvmul c13 z4_3) ?v_32)) (_ bv0 9)) (= (bvadd z4_2 (bvadd (bvneg z4_3) z4_4)) (_ bv0 9)) (= (bvadd ?v_32 z4_5) (_ bv0 9)) (= (bvadd (bvneg z5_0) (bvadd z5_1 (bvneg (bvmul c47 z5_5)))) (_ bv0 9)) (= (bvadd z5_0 (bvadd (bvmul c13 z5_3) (bvneg z5_4))) (_ bv0 9)) (= (bvadd z5_2 (bvadd (bvneg z5_3) z5_4)) (_ bv0 9)) (= (bvadd (bvneg z5_5) z5_6) (_ bv0 9)) (= (bvadd (bvneg z6_0) (bvadd z6_1 (bvneg z6_5))) (_ bv0 9)) (= (bvadd z6_0 (bvadd (bvmul c13 z6_3) (bvneg z6_4))) (_ bv0 9)) (= (bvadd z6_2 (bvadd (bvneg z6_3) (bvadd z6_4 z6_5))) (_ bv0 9)) (= (bvadd (bvneg (bvmul c40 z6_5)) z6_6) (_ bv0 9)) (= (bvadd (bvneg z7_0) (bvadd z7_2 (bvadd (bvmul c47 z7_3) (bvadd (bvmul c55 z7_5) (bvadd (bvmul c59 z7_6) (bvneg (bvmul c59 z7_7))))))) (_ bv0 9)) (= (bvadd z7_0 (bvadd z7_4 (bvadd (bvmul c53 z7_5) (bvadd (bvmul c57 z7_6) ?v_34)))) (_ bv0 9)) (= (bvadd z7_1 (bvadd (bvneg z7_2) (bvadd (bvneg z7_4) (bvadd (bvmul c54 z7_5) (bvadd (bvmul c58 z7_6) (bvneg ?v_33)))))) (_ bv0 9)) (= (bvadd (bvneg z7_1) (bvadd (bvmul c40 z7_2) (bvadd (bvmul c52 z7_5) (bvadd (bvmul c56 z7_6) (bvadd (bvneg z7_7) (bvadd ?v_33 (bvadd (bvneg (bvmul c56 z7_7)) (bvadd ?v_34 z7_8)))))))) (_ bv0 9)) (= (bvadd (bvneg z8_0) (bvadd z8_2 (bvadd (bvmul c47 z8_3) (bvadd (bvmul c55 z8_5) (bvadd (bvmul c59 z8_6) (bvneg (bvmul c55 z8_7))))))) (_ bv0 9)) (= (bvadd z8_0 (bvadd z8_4 (bvadd (bvmul c53 z8_5) (bvadd (bvmul c57 z8_6) ?v_36)))) (_ bv0 9)) (= (bvadd z8_1 (bvadd (bvneg z8_2) (bvadd (bvneg z8_4) (bvadd (bvmul c54 z8_5) (bvadd (bvmul c58 z8_6) (bvneg ?v_35)))))) (_ bv0 9)) (= (bvadd (bvneg z8_1) (bvadd (bvmul c40 z8_2) (bvadd (bvmul c52 z8_5) (bvadd (bvmul c56 z8_6) (bvadd (bvneg z8_7) (bvadd ?v_35 (bvadd (bvneg (bvmul c52 z8_7)) (bvadd ?v_36 z8_8)))))))) (_ bv0 9)) (= (bvadd (bvneg z9_0) (bvadd z9_2 (bvadd (bvmul c47 z9_3) (bvadd (bvmul c55 z9_5) (bvadd (bvmul c59 z9_6) (bvneg (bvmul c47 z9_7))))))) (_ bv0 9)) (= (bvadd z9_0 (bvadd z9_4 (bvadd (bvmul c53 z9_5) (bvmul c57 z9_6)))) (_ bv0 9)) (= (bvadd z9_1 (bvadd (bvneg z9_2) (bvadd (bvneg z9_4) (bvadd (bvmul c54 z9_5) (bvmul c58 z9_6))))) (_ bv0 9)) (= (bvadd (bvneg z9_1) (bvadd (bvmul c40 z9_2) (bvadd (bvmul c52 z9_5) (bvadd (bvmul c56 z9_6) (bvadd (bvneg z9_7) z9_8))))) (_ bv0 9)) (= (bvadd (bvneg z10_0) (bvadd z10_2 (bvadd (bvmul c47 z10_3) (bvadd (bvmul c55 z10_5) (bvadd (bvmul c59 z10_6) (bvneg z10_7)))))) (_ bv0 9)) (= (bvadd z10_0 (bvadd z10_4 (bvadd (bvmul c53 z10_5) (bvmul c57 z10_6)))) (_ bv0 9)) (= (bvadd z10_1 (bvadd (bvneg z10_2) (bvadd (bvneg z10_4) (bvadd (bvmul c54 z10_5) (bvadd (bvmul c58 z10_6) z10_7))))) (_ bv0 9)) (= (bvadd (bvneg z10_1) (bvadd (bvmul c40 z10_2) (bvadd (bvmul c52 z10_5) (bvadd (bvmul c56 z10_6) (bvadd (bvmul (_ bv510 9) z10_7) (bvadd (bvneg (bvmul c40 z10_7)) z10_8)))))) (_ bv0 9)) (= (bvadd z11_1 (bvadd z11_5 (bvadd (bvmul c53 z11_6) (bvadd (bvmul c57 z11_7) ?v_37)))) (_ bv0 9)) (= (bvadd (bvneg z11_1) (bvadd z11_3 (bvadd (bvmul c47 z11_4) (bvadd (bvmul c55 z11_6) (bvadd (bvmul c59 z11_7) z11_8))))) (_ bv0 9)) (= (bvadd z11_2 (bvadd (bvneg z11_3) (bvadd (bvneg z11_5) (bvadd (bvmul c54 z11_6) (bvmul c58 z11_7))))) (_ bv0 9)) (= (bvadd z11_0 (bvadd (bvmul c40 z11_3) (bvadd (bvmul c52 z11_6) (bvadd (bvmul c56 z11_7) ?v_37)))) (_ bv0 9)) (= (bvadd z12_1 (bvadd z12_5 (bvadd (bvmul c53 z12_6) (bvmul c57 z12_7)))) (_ bv0 9)) (= (bvadd (bvneg z12_1) (bvadd z12_3 (bvadd (bvmul c47 z12_4) (bvadd (bvmul c55 z12_6) (bvmul c59 z12_7))))) (_ bv0 9)) (= (bvadd z12_2 (bvadd (bvneg z12_3) (bvadd (bvneg z12_5) (bvadd (bvmul c54 z12_6) (bvadd (bvmul c58 z12_7) ?v_38))))) (_ bv0 9)) (= (bvadd z12_0 (bvadd (bvmul c40 z12_3) (bvadd (bvmul c52 z12_6) (bvadd (bvmul c56 z12_7) ?v_38)))) (_ bv0 9)) (= (bvadd z13_1 (bvadd z13_5 (bvadd (bvmul c53 z13_6) (bvmul c57 z13_7)))) (_ bv0 9)) (= (bvadd (bvneg z13_1) (bvadd z13_3 (bvadd (bvmul c47 z13_4) (bvadd (bvmul c55 z13_6) (bvadd (bvmul c59 z13_7) (bvneg z13_8)))))) (_ bv0 9)) (= (bvadd z13_2 (bvadd (bvneg z13_3) (bvadd (bvneg z13_5) (bvadd (bvmul c54 z13_6) (bvadd (bvmul c58 z13_7) z13_8))))) (_ bv0 9)) (= (bvadd z13_0 (bvadd (bvmul c40 z13_3) (bvadd (bvmul c52 z13_6) (bvadd (bvmul c56 z13_7) (bvmul (_ bv510 9) z13_8))))) (_ bv0 9)) (= (bvadd z14_1 (bvadd z14_5 (bvadd (bvmul c53 z14_6) (bvadd (bvmul c57 z14_7) ?v_39)))) (_ bv0 9)) (= (bvadd (bvneg z14_1) (bvadd z14_3 (bvadd (bvmul c47 z14_4) (bvadd (bvmul c55 z14_6) (bvmul c59 z14_7))))) (_ bv0 9)) (= (bvadd z14_2 (bvadd (bvneg z14_3) (bvadd (bvneg z14_5) (bvadd (bvmul c54 z14_6) (bvadd (bvmul c58 z14_7) z14_8))))) (_ bv0 9)) (= (bvadd z14_0 (bvadd (bvmul c40 z14_3) (bvadd (bvmul c52 z14_6) (bvadd (bvmul c56 z14_7) ?v_39)))) (_ bv0 9)) (= (bvadd z15_1 (bvadd z15_5 (bvadd (bvmul c53 z15_6) (bvadd (bvmul c57 z15_7) ?v_40)))) (_ bv0 9)) (= (bvadd (bvneg z15_1) (bvadd z15_3 (bvadd (bvmul c47 z15_4) (bvadd (bvmul c55 z15_6) (bvmul c59 z15_7))))) (_ bv0 9)) (= (bvadd z15_2 (bvadd (bvneg z15_3) (bvadd (bvneg z15_5) (bvadd (bvmul c54 z15_6) (bvadd (bvmul c58 z15_7) ?v_40))))) (_ bv0 9)) (= (bvadd z15_0 (bvadd (bvmul c40 z15_3) (bvadd (bvmul c52 z15_6) (bvadd (bvmul c56 z15_7) z15_8)))) (_ bv0 9)) (= (bvadd z16_1 (bvadd z16_5 (bvadd (bvmul c53 z16_6) (bvadd (bvmul c57 z16_7) ?v_41)))) (_ bv0 9)) (= (bvadd (bvneg z16_1) (bvadd z16_3 (bvadd (bvmul c47 z16_4) (bvadd (bvmul c55 z16_6) (bvadd (bvmul c59 z16_7) z16_8))))) (_ bv0 9)) (= (bvadd z16_2 (bvadd (bvneg z16_3) (bvadd (bvneg z16_5) (bvadd (bvmul c54 z16_6) (bvmul c58 z16_7))))) (_ bv0 9)) (= (bvadd z16_0 (bvadd (bvmul c40 z16_3) (bvadd (bvmul c52 z16_6) (bvadd (bvmul c56 z16_7) ?v_41)))) (_ bv0 9)) (= (bvadd z17_1 (bvadd z17_5 (bvadd (bvmul c53 z17_6) (bvmul c57 z17_7)))) (_ bv0 9)) (= (bvadd (bvneg z17_1) (bvadd z17_3 (bvadd (bvmul c47 z17_4) (bvadd (bvmul c55 z17_6) (bvmul c59 z17_7))))) (_ bv0 9)) (= (bvadd z17_2 (bvadd (bvneg z17_3) (bvadd (bvneg z17_5) (bvadd (bvmul c54 z17_6) (bvadd (bvmul c58 z17_7) ?v_42))))) (_ bv0 9)) (= (bvadd z17_0 (bvadd (bvmul c40 z17_3) (bvadd (bvmul c52 z17_6) (bvadd (bvmul c56 z17_7) ?v_42)))) (_ bv0 9)) (= (bvadd z18_1 (bvadd z18_5 (bvadd (bvmul c53 z18_6) (bvmul c57 z18_7)))) (_ bv0 9)) (= (bvadd (bvneg z18_1) (bvadd z18_3 (bvadd (bvmul c47 z18_4) (bvadd (bvmul c55 z18_6) (bvadd (bvmul c59 z18_7) (bvneg z18_8)))))) (_ bv0 9)) (= (bvadd z18_2 (bvadd (bvneg z18_3) (bvadd (bvneg z18_5) (bvadd (bvmul c54 z18_6) (bvadd (bvmul c58 z18_7) z18_8))))) (_ bv0 9)) (= (bvadd z18_0 (bvadd (bvmul c40 z18_3) (bvadd (bvmul c52 z18_6) (bvadd (bvmul c56 z18_7) (bvmul (_ bv510 9) z18_8))))) (_ bv0 9)) (= (bvadd z19_1 (bvadd z19_5 (bvadd (bvmul c53 z19_6) (bvmul c57 z19_7)))) (_ bv0 9)) (= (bvadd (bvneg z19_1) (bvadd z19_3 (bvadd (bvmul c47 z19_4) (bvadd (bvmul c55 z19_6) (bvadd (bvmul c59 z19_7) ?v_43))))) (_ bv0 9)) (= (bvadd z19_2 (bvadd (bvneg z19_3) (bvadd (bvneg z19_5) (bvadd (bvmul c54 z19_6) (bvmul c58 z19_7))))) (_ bv0 9)) (= (bvadd z19_0 (bvadd (bvmul c40 z19_3) (bvadd (bvmul c52 z19_6) (bvadd (bvmul c56 z19_7) ?v_43)))) (_ bv0 9)) (= (bvadd z20_1 (bvadd z20_5 (bvadd (bvmul c53 z20_6) (bvadd (bvmul c57 z20_7) ?v_44)))) (_ bv0 9)) (= (bvadd (bvneg z20_1) (bvadd z20_3 (bvadd (bvmul c47 z20_4) (bvadd (bvmul c55 z20_6) (bvmul c59 z20_7))))) (_ bv0 9)) (= (bvadd z20_2 (bvadd (bvneg z20_3) (bvadd (bvneg z20_5) (bvadd (bvmul c54 z20_6) (bvadd (bvmul c58 z20_7) z20_8))))) (_ bv0 9)) (= (bvadd z20_0 (bvadd (bvmul c40 z20_3) (bvadd (bvmul c52 z20_6) (bvadd (bvmul c56 z20_7) ?v_44)))) (_ bv0 9)) (= (bvadd z21_1 (bvadd z21_5 (bvadd (bvmul c53 z21_6) (bvadd (bvmul c57 z21_7) ?v_45)))) (_ bv0 9)) (= (bvadd (bvneg z21_1) (bvadd z21_3 (bvadd (bvmul c47 z21_4) (bvadd (bvmul c55 z21_6) (bvmul c59 z21_7))))) (_ bv0 9)) (= (bvadd z21_2 (bvadd (bvneg z21_3) (bvadd (bvneg z21_5) (bvadd (bvmul c54 z21_6) (bvadd (bvmul c58 z21_7) ?v_45))))) (_ bv0 9)) (= (bvadd z21_0 (bvadd (bvmul c40 z21_3) (bvadd (bvmul c52 z21_6) (bvadd (bvmul c56 z21_7) z21_8)))) (_ bv0 9)))))))
(check-sat)
(exit)
